TYPE : Vertex Cover
DIMENSION: 26
EDGE_DATA_SECTION:
1 3
1 13
1 16
1 18
2 13
2 17
2 23
2 25
3 15
3 17
3 19
3 21
4 11
4 14
4 19
5 8
5 9
5 10
5 21
5 24
6 7
6 8
6 13
6 17
6 25
7 14
7 23
7 25
8 11
8 15
8 17
8 22
8 24
9 10
9 11
10 19
10 20
10 21
10 23
11 13
11 15
12 19
12 24
13 22
14 20
14 24
15 18
15 19
15 20
15 23
15 24
16 19
16 20
16 23
16 24
17 18
17 20
17 22
18 23
21 25
22 23
22 24
23 25
-1
VERTEX_DEGREE:
0.0 4.0 4.0 5.0 3.0 5.0 5.0 4.0 7.0 3.0 6.0 5.0 2.0 5.0 4.0 8.0 5.0 7.0 4.0 6.0 5.0 4.0 5.0 8.0 7.0 5.0
VERTEX_COVER:
1 4 5 7 8 9 13 15 17 19 20 21 23 24 25
EOF
